p = 25;
s = 12;
b = 6;
c = 10;
t = 5;
g = 7;
graph = [| 1,1,0,1,1,1,0,1,0,0,0,1
	| 1,1,1,1,1,0,1,1,1,0,0,0
	| 1,0,0,1,1,1,1,1,0,1,0,0
	| 1,0,0,1,0,1,0,0,0,1,1,0
	| 0,0,0,0,1,1,0,0,0,0,1,0
	| 0,1,1,0,0,1,0,1,1,0,0,1
	| 1,0,1,0,1,1,0,0,1,1,1,1
	| 0,0,1,1,0,1,1,1,1,1,0,0
	| 0,1,0,0,0,1,1,1,1,0,0,1
	| 1,0,0,1,0,0,0,1,0,1,1,0
	| 0,1,0,0,0,1,1,0,0,1,1,1
	| 0,1,1,1,0,1,1,0,0,0,0,1
	| 0,0,0,0,0,0,1,0,1,1,0,1
	| 0,0,0,1,1,1,0,0,0,0,1,1
	| 0,0,1,1,0,0,1,0,0,0,1,1
	| 1,0,1,1,0,1,1,0,1,1,0,1
	| 1,0,0,0,0,1,1,0,1,0,1,0
	| 1,0,1,0,0,0,1,0,0,0,1,0
	| 0,0,0,0,0,1,1,1,1,1,1,1
	| 1,0,0,0,1,0,1,0,0,1,1,0
	| 1,0,1,0,1,0,1,1,1,0,0,1
	| 1,0,1,1,1,1,1,1,0,0,0,1
	| 0,1,0,1,0,1,1,0,1,1,0,1
	| 1,1,1,0,0,1,1,1,1,1,0,1
	| 0,1,1,0,1,1,1,0,0,0,1,1
	|];
groups = [
	{1,13,21},{17,4},{19,6,9},{22,14,15},{24,20},{16,3},{2,11,12,8}
]